## Data in AMPL format              
                  
set T := year1 year2 year3 year4 year5;               
set I :=                
HP_feedwater_heater_upgrade                  
Presurizer_replacement                  
Improvement_to_emergency_diesel_generators                  
Secondary_system_PHM_system                  
Replacement_of_two_reactor_coolant_pumps                  
Seismic_modification_requalification_reinforcement_improvement                  
Fire_protection                  
Service_water_system_upgrade                  
Batteries_replacement                  
Replace_CCW_piping_heat_exchangers_valves                  
Reactor_vessel_internals                  
Reactor_vessel_upgrade                  
Replace_LP_turbine                  
Replace_instrumentation_and_control_cables                  
Condenser_retubing                  
Replace_moisture_separator_reheater ;  

set Sm := S1 S2 S3 S4 S5 S6 S7 S8 S9 S10; 

set J := PlanA PlanB PlanC ;

set IM:=                   
Presurizer_replacement                  
Replacement_of_two_reactor_coolant_pumps                  
Fire_protection                  
Replace_CCW_piping_heat_exchangers_valves                  
Reactor_vessel_upgrade                  
Replace_instrumentation_and_control_cables                  
;                  
                  
set IJ:=                  
HP_feedwater_heater_upgrade PlanA                 
Presurizer_replacement PlanA                 
Improvement_to_emergency_diesel_generators PlanA                 
Secondary_system_PHM_system PlanA                 
Replacement_of_two_reactor_coolant_pumps PlanA                 
Seismic_modification_requalification_reinforcement_improvement PlanA                 
Fire_protection PlanA                 
Service_water_system_upgrade PlanA                 
Batteries_replacement PlanA                 
Replace_CCW_piping_heat_exchangers_valves PlanA                 
Reactor_vessel_internals PlanA                 
Reactor_vessel_upgrade PlanA                 
Replace_LP_turbine PlanA                 
Replace_instrumentation_and_control_cables PlanA                 
Condenser_retubing PlanA                 
Replace_moisture_separator_reheater PlanA                 
HP_feedwater_heater_upgrade PlanB                 
Presurizer_replacement PlanB                 
Improvement_to_emergency_diesel_generators PlanB                 
Secondary_system_PHM_system PlanB                 
Replacement_of_two_reactor_coolant_pumps PlanB                 
Seismic_modification_requalification_reinforcement_improvement PlanB                 
Fire_protection PlanB                 
Service_water_system_upgrade PlanB                 
Replace_CCW_piping_heat_exchangers_valves PlanB                 
Reactor_vessel_internals PlanB                 
Replace_LP_turbine PlanB                 
Condenser_retubing PlanB                 
Replace_moisture_separator_reheater PlanB                 
Presurizer_replacement PlanC                 
Seismic_modification_requalification_reinforcement_improvement PlanC                 
Replace_CCW_piping_heat_exchangers_valves PlanC                 
Replace_moisture_separator_reheater PlanC                 
;                  
                  
param a:=                  
HP_feedwater_heater_upgrade PlanA 27.98                
Presurizer_replacement PlanA -10.07                
Improvement_to_emergency_diesel_generators PlanA 20.23                
Secondary_system_PHM_system PlanA 35                
Replacement_of_two_reactor_coolant_pumps PlanA -18.6                
Seismic_modification_requalification_reinforcement_improvement PlanA 9.48                
Fire_protection PlanA -1.44                
Service_water_system_upgrade PlanA 5.18                
Batteries_replacement PlanA 2.1                
Replace_CCW_piping_heat_exchangers_valves PlanA -5.03                
Reactor_vessel_internals PlanA 41.14                
Reactor_vessel_upgrade PlanA -5.25                
Replace_LP_turbine PlanA 167.94                
Replace_instrumentation_and_control_cables PlanA -6.52                
Condenser_retubing PlanA 16.72                
Replace_moisture_separator_reheater PlanA 8.26                
HP_feedwater_heater_upgrade PlanB 27.16504854                
Presurizer_replacement PlanB -9.776699029                
Improvement_to_emergency_diesel_generators PlanB 20.8369                
Secondary_system_PHM_system PlanB 33.98058252                
Replacement_of_two_reactor_coolant_pumps PlanB -17.02163486                
Seismic_modification_requalification_reinforcement_improvement PlanB 8.935809219                
Fire_protection PlanB -1.317803989                
Service_water_system_upgrade PlanB 4.882646809                
Replace_CCW_piping_heat_exchangers_valves PlanB -5.1809                
Reactor_vessel_internals PlanB 37.64892787                
Replace_LP_turbine PlanB 163.0485437                
Condenser_retubing PlanB 15.7602036                
Replace_moisture_separator_reheater PlanB 7.559070106                
Presurizer_replacement PlanC -9.21547651                
Seismic_modification_requalification_reinforcement_improvement PlanC 8.675542931                
Replace_CCW_piping_heat_exchangers_valves PlanC -4.883495146                
Replace_moisture_separator_reheater PlanC 7.338903016          
;                  
                  
param b:	S1	S2	S3	S4	S5	S6	S7	S8	S9	S10	:=
year1	20.0000	20.3333	20.6667	21.0000	21.3333	21.6667	22.0000	22.3333	22.6667	23.0000
year2	34.0000	34.4444	34.8889	35.3333	35.7778	36.2222	36.6667	37.1111	37.5556	38.0000
year3	17.0000	17.5556	18.1111	18.6667	19.2222	19.7778	20.3333	20.8889	21.4444	22.0000
year4	20.0000	20.5556	21.1111	21.6667	22.2222	22.7778	23.3333	23.8889	24.4444	25.0000
year5	18.0000	18.6667	19.3333	20.0000	20.6667	21.3333	22.0000	22.6667	23.3333	24.0000
;

                                   
param c:=                      
HP_feedwater_heater_upgrade PlanA year1 13.01               
HP_feedwater_heater_upgrade PlanB year1 0               
Presurizer_replacement PlanA year1 9.19               
Presurizer_replacement PlanB year1 0               
Presurizer_replacement PlanC year1 0               
Improvement_to_emergency_diesel_generators PlanA year1 0               
Improvement_to_emergency_diesel_generators PlanB year1 0               
Secondary_system_PHM_system PlanA year1 0               
Secondary_system_PHM_system PlanB year1 0               
Replacement_of_two_reactor_coolant_pumps PlanA year1 0               
Replacement_of_two_reactor_coolant_pumps PlanB year1 0               
Seismic_modification_requalification_reinforcement_improvement PlanA year1 0               
Seismic_modification_requalification_reinforcement_improvement PlanB year1 0               
Seismic_modification_requalification_reinforcement_improvement PlanC year1 0               
Fire_protection PlanA year1 1.32               
Fire_protection PlanB year1 0               
Service_water_system_upgrade PlanA year1 2.35               
Service_water_system_upgrade PlanB year1 0               
Batteries_replacement PlanA year1 0.29               
Replace_CCW_piping_heat_exchangers_valves PlanA year1 0               
Replace_CCW_piping_heat_exchangers_valves PlanB year1 0               
Replace_CCW_piping_heat_exchangers_valves PlanC year1 0               
Reactor_vessel_internals PlanA year1 0               
Reactor_vessel_internals PlanB year1 0               
Reactor_vessel_upgrade PlanA year1 5.27               
Replace_LP_turbine PlanA year1 0               
Replace_LP_turbine PlanB year1 0               
Replace_instrumentation_and_control_cables PlanA year1 5.94               
Condenser_retubing PlanA year1 5.26               
Condenser_retubing PlanB year1 0               
Replace_moisture_separator_reheater PlanA year1 3.17               
Replace_moisture_separator_reheater PlanB year1 0               
Replace_moisture_separator_reheater PlanC year1 0               
HP_feedwater_heater_upgrade PlanA year2 1.31               
HP_feedwater_heater_upgrade PlanB year2 13.01               
Presurizer_replacement PlanA year2 0.93               
Presurizer_replacement PlanB year2 9.19               
Presurizer_replacement PlanC year2 0               
Improvement_to_emergency_diesel_generators PlanA year2 0               
Improvement_to_emergency_diesel_generators PlanB year2 0               
Secondary_system_PHM_system PlanA year2 4.51               
Secondary_system_PHM_system PlanB year2 0               
Replacement_of_two_reactor_coolant_pumps PlanA year2 18.63               
Replacement_of_two_reactor_coolant_pumps PlanB year2 0               
Seismic_modification_requalification_reinforcement_improvement PlanA year2 2.44               
Seismic_modification_requalification_reinforcement_improvement PlanB year2 0               
Seismic_modification_requalification_reinforcement_improvement PlanC year2 0               
Fire_protection PlanA year2 0.14               
Fire_protection PlanB year2 0               
Service_water_system_upgrade PlanA year2 0               
Service_water_system_upgrade PlanB year2 0               
Batteries_replacement PlanA year2 0               
Replace_CCW_piping_heat_exchangers_valves PlanA year2 0               
Replace_CCW_piping_heat_exchangers_valves PlanB year2 4.58               
Replace_CCW_piping_heat_exchangers_valves PlanC year2 0               
Reactor_vessel_internals PlanA year2 19.85               
Reactor_vessel_internals PlanB year2 0               
Reactor_vessel_upgrade PlanA year2 0               
Replace_LP_turbine PlanA year2 0               
Replace_LP_turbine PlanB year2 0               
Replace_instrumentation_and_control_cables PlanA year2 0.61               
Condenser_retubing PlanA year2 0               
Condenser_retubing PlanB year2 0               
Replace_moisture_separator_reheater PlanA year2 0               
Replace_moisture_separator_reheater PlanB year2 0               
Replace_moisture_separator_reheater PlanC year2 0               
HP_feedwater_heater_upgrade PlanA year3 0               
HP_feedwater_heater_upgrade PlanB year3 1.31               
Presurizer_replacement PlanA year3 0               
Presurizer_replacement PlanB year3 0.93               
Presurizer_replacement PlanC year3 0               
Improvement_to_emergency_diesel_generators PlanA year3 0               
Improvement_to_emergency_diesel_generators PlanB year3 10.09               
Secondary_system_PHM_system PlanA year3 0.31               
Secondary_system_PHM_system PlanB year3 4.51               
Replacement_of_two_reactor_coolant_pumps PlanA year3 0               
Replacement_of_two_reactor_coolant_pumps PlanB year3 0               
Seismic_modification_requalification_reinforcement_improvement PlanA year3 0               
Seismic_modification_requalification_reinforcement_improvement PlanB year3 0               
Seismic_modification_requalification_reinforcement_improvement PlanC year3 0               
Fire_protection PlanA year3 0               
Fire_protection PlanB year3 0               
Service_water_system_upgrade PlanA year3 0               
Service_water_system_upgrade PlanB year3 2.35               
Batteries_replacement PlanA year3 0               
Replace_CCW_piping_heat_exchangers_valves PlanA year3 4.58               
Replace_CCW_piping_heat_exchangers_valves PlanB year3 0.47               
Replace_CCW_piping_heat_exchangers_valves PlanC year3 0               
Reactor_vessel_internals PlanA year3 0               
Reactor_vessel_internals PlanB year3 0               
Reactor_vessel_upgrade PlanA year3 0               
Replace_LP_turbine PlanA year3 18.79               
Replace_LP_turbine PlanB year3 0               
Replace_instrumentation_and_control_cables PlanA year3 0               
Condenser_retubing PlanA year3 0               
Condenser_retubing PlanB year3 5.26               
Replace_moisture_separator_reheater PlanA year3 0               
Replace_moisture_separator_reheater PlanB year3 0               
Replace_moisture_separator_reheater PlanC year3 0               
HP_feedwater_heater_upgrade PlanA year4 0               
HP_feedwater_heater_upgrade PlanB year4 0               
Presurizer_replacement PlanA year4 0               
Presurizer_replacement PlanB year4 0               
Presurizer_replacement PlanC year4 9.19               
Improvement_to_emergency_diesel_generators PlanA year4 10.09               
Improvement_to_emergency_diesel_generators PlanB year4 1.11               
Secondary_system_PHM_system PlanA year4 0.21               
Secondary_system_PHM_system PlanB year4 0.31               
Replacement_of_two_reactor_coolant_pumps PlanA year4 0               
Replacement_of_two_reactor_coolant_pumps PlanB year4 0               
Seismic_modification_requalification_reinforcement_improvement PlanA year4 0               
Seismic_modification_requalification_reinforcement_improvement PlanB year4 2.44               
Seismic_modification_requalification_reinforcement_improvement PlanC year4 0               
Fire_protection PlanA year4 0               
Fire_protection PlanB year4 1.32               
Service_water_system_upgrade PlanA year4 0               
Service_water_system_upgrade PlanB year4 0               
Batteries_replacement PlanA year4 0               
Replace_CCW_piping_heat_exchangers_valves PlanA year4 0.47               
Replace_CCW_piping_heat_exchangers_valves PlanB year4 0               
Replace_CCW_piping_heat_exchangers_valves PlanC year4 4.58               
Reactor_vessel_internals PlanA year4 0               
Reactor_vessel_internals PlanB year4 0               
Reactor_vessel_upgrade PlanA year4 0               
Replace_LP_turbine PlanA year4 0               
Replace_LP_turbine PlanB year4 18.79               
Replace_instrumentation_and_control_cables PlanA year4 0               
Condenser_retubing PlanA year4 0               
Condenser_retubing PlanB year4 0               
Replace_moisture_separator_reheater PlanA year4 0               
Replace_moisture_separator_reheater PlanB year4 3.17               
Replace_moisture_separator_reheater PlanC year4 0               
HP_feedwater_heater_upgrade PlanA year5 0               
HP_feedwater_heater_upgrade PlanB year5 0               
Presurizer_replacement PlanA year5 0               
Presurizer_replacement PlanB year5 0               
Presurizer_replacement PlanC year5 0.93               
Improvement_to_emergency_diesel_generators PlanA year5 1.11               
Improvement_to_emergency_diesel_generators PlanB year5 0               
Secondary_system_PHM_system PlanA year5 0               
Secondary_system_PHM_system PlanB year5 0.21               
Replacement_of_two_reactor_coolant_pumps PlanA year5 0               
Replacement_of_two_reactor_coolant_pumps PlanB year5 18.63               
Seismic_modification_requalification_reinforcement_improvement PlanA year5 0               
Seismic_modification_requalification_reinforcement_improvement PlanB year5 0               
Seismic_modification_requalification_reinforcement_improvement PlanC year5 2.44               
Fire_protection PlanA year5 0               
Fire_protection PlanB year5 0.14               
Service_water_system_upgrade PlanA year5 0               
Service_water_system_upgrade PlanB year5 0               
Batteries_replacement PlanA year5 0               
Replace_CCW_piping_heat_exchangers_valves PlanA year5 0               
Replace_CCW_piping_heat_exchangers_valves PlanB year5 0               
Replace_CCW_piping_heat_exchangers_valves PlanC year5 0.47               
Reactor_vessel_internals PlanA year5 0               
Reactor_vessel_internals PlanB year5 19.85               
Reactor_vessel_upgrade PlanA year5 0               
Replace_LP_turbine PlanA year5 0               
Replace_LP_turbine PlanB year5 0               
Replace_instrumentation_and_control_cables PlanA year5 0               
Condenser_retubing PlanA year5 0               
Condenser_retubing PlanB year5 0               
Replace_moisture_separator_reheater PlanA year5 0               
Replace_moisture_separator_reheater PlanB year5 0               
Replace_moisture_separator_reheater PlanC year5 3.17               
;                  
                  
param q:=                 
S1 0.1                 
S2 0.1                 
S3 0.1                 
S4 0.1                 
S5 0.1                 
S6 0.1                 
S7 0.1                 
S8 0.1                 
S9 0.1                 
S10 0.1 ;                
                  
                  
                  
                  
